(set-option :produce-models true); benchmark generated from python API
(set-info :status unknown)
(declare-fun l_0_0_7 () Real)
(declare-fun l_0_0_1 () Real)
(declare-fun _a_0_ () Real)
(declare-fun l_0_0_10 () Real)
(declare-fun l_0_0_4 () Real)
(declare-fun _a_1_ () Real)
(declare-fun l_0_0_9 () Real)
(declare-fun l_0_0_8 () Real)
(declare-fun l_0_0_3 () Real)
(declare-fun l_0_0_2 () Real)
(declare-fun _a_2_ () Real)
(declare-fun l_0_0_6 () Real)
(declare-fun l_0_0_5 () Real)
(declare-fun l_0_0_12 () Real)
(declare-fun l_0_0_11 () Real)
(declare-fun _a_3_ () Real)
(declare-fun l_0_1_7 () Real)
(declare-fun l_0_1_13 () Real)
(declare-fun l_0_1_1 () Real)
(declare-fun l_0_1_16 () Real)
(declare-fun l_0_1_10 () Real)
(declare-fun l_0_1_4 () Real)
(declare-fun l_0_1_9 () Real)
(declare-fun l_0_1_8 () Real)
(declare-fun l_0_1_15 () Real)
(declare-fun l_0_1_14 () Real)
(declare-fun l_0_1_3 () Real)
(declare-fun l_0_1_2 () Real)
(declare-fun l_0_1_17 () Real)
(declare-fun l_0_1_11 () Real)
(declare-fun l_0_1_5 () Real)
(declare-fun l_0_1_18 () Real)
(declare-fun l_0_1_12 () Real)
(declare-fun l_0_1_6 () Real)
(declare-fun l_0_2_7 () Real)
(declare-fun l_0_2_13 () Real)
(declare-fun l_0_2_1 () Real)
(declare-fun l_0_2_17 () Real)
(declare-fun l_0_2_15 () Real)
(declare-fun l_0_2_16 () Real)
(declare-fun l_0_2_14 () Real)
(declare-fun l_0_2_9 () Real)
(declare-fun l_0_2_11 () Real)
(declare-fun l_0_2_8 () Real)
(declare-fun l_0_2_10 () Real)
(declare-fun l_0_2_2 () Real)
(declare-fun l_0_2_5 () Real)
(declare-fun l_0_2_3 () Real)
(declare-fun l_0_2_4 () Real)
(declare-fun l_0_2_18 () Real)
(declare-fun l_0_2_12 () Real)
(declare-fun l_0_2_6 () Real)
(assert
 (let ((?x61 (* l_0_0_7 l_0_0_7)))
 (= (- (- _a_0_ (* (* 2.0 l_0_0_1) l_0_0_1)) ?x61) 0.0)))
(assert
 (let ((?x101 (- (- _a_1_ (* (* 4.0 l_0_0_1) l_0_0_4)) (* (* 2.0 l_0_0_10) l_0_0_7))))
 (= ?x101 0.0)))
(assert
 (let ((?x126 (* l_0_0_9 l_0_0_9)))
 (let ((?x124 (* l_0_0_8 l_0_0_8)))
 (let ((?x83 (* l_0_0_1 l_0_0_1)))
 (let ((?x117 (+ _a_2_ ?x83)))
 (let ((?x123 (- (- ?x117 (* (* 2.0 l_0_0_2) l_0_0_2)) (* (* 2.0 l_0_0_3) l_0_0_3))))
 (= (- (- ?x123 ?x124) ?x126) 0.0)))))))
(assert
 (let ((?x153 (* l_0_0_12 l_0_0_12)))
 (let ((?x151 (* l_0_0_11 l_0_0_11)))
 (let ((?x152 (- (- (+ _a_3_ (* l_0_0_1 l_0_0_1)) (* l_0_0_10 l_0_0_10)) ?x151)))
 (let ((?x160 (- (- (- ?x152 ?x153) (* (* 2.0 l_0_0_4) l_0_0_4)) (* (* 2.0 l_0_0_5) l_0_0_5))))
 (= (- ?x160 (* (* 2.0 l_0_0_6) l_0_0_6)) 0.0))))))
(assert
 (let ((?x197 (- (* (* (- 4.0) l_0_0_1) l_0_0_2) (* (* 2.0 l_0_0_7) l_0_0_8))))
 (= ?x197 0.0)))
(assert
 (let ((?x214 (- (* (* (- 2.0) l_0_0_10) l_0_0_8) (* (* 2.0 l_0_0_11) l_0_0_9))))
 (let ((?x220 (- (- ?x214 (* (* 4.0 l_0_0_2) l_0_0_4)) (* (* 4.0 l_0_0_3) l_0_0_5))))
 (= ?x220 0.0))))
(assert
 (= (* (* 2.0 l_0_0_1) l_0_0_2) 0.0))
(assert
 (= (* (* 2.0 l_0_0_1) l_0_0_4) 0.0))
(assert
 (let ((?x135 (* l_0_0_3 l_0_0_3)))
 (let ((?x129 (* l_0_0_2 l_0_0_2)))
 (let ((?x250 (+ ?x129 ?x135)))
 (= ?x250 0.0)))))
(assert
 (let ((?x255 (+ (* (* 2.0 l_0_0_2) l_0_0_4) (* (* 2.0 l_0_0_3) l_0_0_5))))
 (= ?x255 0.0)))
(assert
 (let ((?x186 (* l_0_0_6 l_0_0_6)))
 (let ((?x180 (* l_0_0_5 l_0_0_5)))
 (let ((?x174 (* l_0_0_4 l_0_0_4)))
 (let ((?x135 (* l_0_0_3 l_0_0_3)))
 (let ((?x129 (* l_0_0_2 l_0_0_2)))
 (let ((?x250 (+ ?x129 ?x135)))
 (= (+ (+ (+ ?x250 ?x174) ?x180) ?x186) 0.0))))))))
(assert
 (= (* (* 2.0 l_0_0_1) l_0_0_2) 0.0))
(assert
 (= (* (* 2.0 l_0_0_1) l_0_0_4) 0.0))
(assert
 (let ((?x255 (+ (* (* 2.0 l_0_0_2) l_0_0_4) (* (* 2.0 l_0_0_3) l_0_0_5))))
 (= ?x255 0.0)))
(assert
 (let ((?x186 (* l_0_0_6 l_0_0_6)))
 (= (+ (+ (* l_0_0_4 l_0_0_4) (* l_0_0_5 l_0_0_5)) ?x186) 0.0)))
(assert
 (>= l_0_0_1 0.0))
(assert
 (>= l_0_0_3 0.0))
(assert
 (>= l_0_0_6 0.0))
(assert
 (>= l_0_0_7 0.0))
(assert
 (>= l_0_0_9 0.0))
(assert
 (>= l_0_0_12 0.0))
(assert
 (let ((?x286 (+ (- (* (* (- _a_0_) l_0_1_1) l_0_1_1) (* l_0_1_13 l_0_1_13)) (* 3.0 (* l_0_1_7 l_0_1_7)))))
 (= (+ ?x286 (/ 121.0 100.0)) 0.0)))
(assert
 (let ((?x305 (- (* (* (* (- 2.0) _a_0_) l_0_1_1) l_0_1_4) (* (* _a_1_ l_0_1_1) l_0_1_1))))
 (let ((?x312 (- (+ ?x305 (* (* 6.0 l_0_1_10) l_0_1_7)) (* (* 2.0 l_0_1_13) l_0_1_16))))
 (= (+ ?x312 1.0) 0.0))))
(assert
 (let ((?x351 (* l_0_1_9 l_0_1_9)))
 (let ((?x352 (* 3.0 ?x351)))
 (let ((?x348 (* l_0_1_8 l_0_1_8)))
 (let ((?x349 (* 3.0 ?x348)))
 (let ((?x283 (* l_0_1_7 l_0_1_7)))
 (let ((?x345 (* l_0_1_15 l_0_1_15)))
 (let ((?x343 (* l_0_1_14 l_0_1_14)))
 (let ((?x342 (- (* (- _a_0_) (+ (* l_0_1_2 l_0_1_2) (* l_0_1_3 l_0_1_3))) (* (* _a_2_ l_0_1_1) l_0_1_1))))
 (= (- (+ (+ (- (- (- ?x342 ?x343) ?x345) ?x283) ?x349) ?x352) (/ 1.0 5.0)) 0.0))))))))))
(assert
 (let ((?x386 (- (* (* (* (- 2.0) _a_0_) l_0_1_1) l_0_1_2) (* (* 2.0 l_0_1_13) l_0_1_14))))
 (= (+ ?x386 (* (* 6.0 l_0_1_7) l_0_1_8)) 0.0)))
(assert
 (let ((?x410 (+ (* (* 2.0 l_0_1_2) l_0_1_4) (* (* 2.0 l_0_1_3) l_0_1_5))))
 (let ((?x278 (- _a_0_)))
 (let ((?x417 (+ (- (* ?x278 ?x410) (* (* (* 2.0 _a_1_) l_0_1_1) l_0_1_2)) (* (* 6.0 l_0_1_10) l_0_1_8))))
 (let ((?x423 (- (+ ?x417 (* (* 6.0 l_0_1_11) l_0_1_9)) (* (* 2.0 l_0_1_14) l_0_1_16))))
 (= (- ?x423 (* (* 2.0 l_0_1_15) l_0_1_17)) 0.0))))))
(assert
 (let ((?x283 (* l_0_1_7 l_0_1_7)))
 (let ((?x488 (* l_0_1_18 l_0_1_18)))
 (let ((?x486 (* l_0_1_17 l_0_1_17)))
 (let ((?x484 (* l_0_1_16 l_0_1_16)))
 (let ((?x481 (* l_0_1_12 l_0_1_12)))
 (let ((?x482 (* 3.0 ?x481)))
 (let ((?x478 (* l_0_1_11 l_0_1_11)))
 (let ((?x479 (* 3.0 ?x478)))
 (let ((?x475 (* l_0_1_10 l_0_1_10)))
 (let ((?x476 (* 3.0 ?x475)))
 (let ((?x467 (* l_0_1_6 l_0_1_6)))
 (let ((?x468 (+ (+ (* l_0_1_4 l_0_1_4) (* l_0_1_5 l_0_1_5)) ?x467)))
 (let ((?x278 (- _a_0_)))
 (let ((?x474 (- (- (* ?x278 ?x468) (* (* (* 2.0 _a_1_) l_0_1_1) l_0_1_4)) (* (* _a_3_ l_0_1_1) l_0_1_1))))
 (let ((?x490 (- (- (- (- (+ (+ (+ ?x474 ?x476) ?x479) ?x482) ?x484) ?x486) ?x488) ?x283)))
 (= ?x490 0.0)))))))))))))))))
(assert
 (let ((?x533 (* 2.0 l_0_1_10)))
 (let ((?x534 (* ?x533 l_0_1_7)))
 (let ((?x532 (- (* (- _a_1_) (+ (* l_0_1_2 l_0_1_2) (* l_0_1_3 l_0_1_3))) (* (* (* 2.0 _a_2_) l_0_1_1) l_0_1_4))))
 (= (- ?x532 ?x534) 0.0)))))
(assert
 (let ((?x562 (* (* 2.0 l_0_1_7) l_0_1_8)))
 (let ((?x410 (+ (* (* 2.0 l_0_1_2) l_0_1_4) (* (* 2.0 l_0_1_3) l_0_1_5))))
 (let ((?x527 (- _a_1_)))
 (let ((?x563 (- (- (* ?x527 ?x410) (* (* (* 2.0 _a_3_) l_0_1_1) l_0_1_2)) ?x562)))
 (= ?x563 0.0))))))
(assert
 (let ((?x533 (* 2.0 l_0_1_10)))
 (let ((?x534 (* ?x533 l_0_1_7)))
 (let ((?x467 (* l_0_1_6 l_0_1_6)))
 (let ((?x468 (+ (+ (* l_0_1_4 l_0_1_4) (* l_0_1_5 l_0_1_5)) ?x467)))
 (let ((?x527 (- _a_1_)))
 (let ((?x587 (- (- (* ?x527 ?x468) (* (* (* 2.0 _a_3_) l_0_1_1) l_0_1_4)) ?x534)))
 (= ?x587 0.0))))))))
(assert
 (let ((?x562 (* (* 2.0 l_0_1_7) l_0_1_8)))
 (= (- (* (* (* (- 2.0) _a_2_) l_0_1_1) l_0_1_2) ?x562) 0.0)))
(assert
 (let ((?x351 (* l_0_1_9 l_0_1_9)))
 (let ((?x348 (* l_0_1_8 l_0_1_8)))
 (let ((?x622 (- (* (- _a_2_) (+ (* l_0_1_2 l_0_1_2) (* l_0_1_3 l_0_1_3))) ?x348)))
 (= (- ?x622 ?x351) 0.0)))))
(assert
 (let ((?x643 (* (* 2.0 l_0_1_11) l_0_1_9)))
 (let ((?x533 (* 2.0 l_0_1_10)))
 (let ((?x640 (* ?x533 l_0_1_8)))
 (let ((?x410 (+ (* (* 2.0 l_0_1_2) l_0_1_4) (* (* 2.0 l_0_1_3) l_0_1_5))))
 (let ((?x620 (- _a_2_)))
 (= (- (- (* ?x620 ?x410) ?x640) ?x643) 0.0)))))))
(assert
 (let ((?x351 (* l_0_1_9 l_0_1_9)))
 (let ((?x348 (* l_0_1_8 l_0_1_8)))
 (let ((?x481 (* l_0_1_12 l_0_1_12)))
 (let ((?x478 (* l_0_1_11 l_0_1_11)))
 (let ((?x475 (* l_0_1_10 l_0_1_10)))
 (let ((?x467 (* l_0_1_6 l_0_1_6)))
 (let ((?x468 (+ (+ (* l_0_1_4 l_0_1_4) (* l_0_1_5 l_0_1_5)) ?x467)))
 (let ((?x620 (- _a_2_)))
 (let ((?x665 (- (* ?x620 ?x468) (* _a_3_ (+ (* l_0_1_2 l_0_1_2) (* l_0_1_3 l_0_1_3))))))
 (= (- (- (- (- (- ?x665 ?x475) ?x478) ?x481) ?x348) ?x351) 0.0)))))))))))
(assert
 (let ((?x643 (* (* 2.0 l_0_1_11) l_0_1_9)))
 (let ((?x533 (* 2.0 l_0_1_10)))
 (let ((?x640 (* ?x533 l_0_1_8)))
 (let ((?x410 (+ (* (* 2.0 l_0_1_2) l_0_1_4) (* (* 2.0 l_0_1_3) l_0_1_5))))
 (let ((?x706 (- _a_3_)))
 (= (- (- (* ?x706 ?x410) ?x640) ?x643) 0.0)))))))
(assert
 (let ((?x481 (* l_0_1_12 l_0_1_12)))
 (let ((?x478 (* l_0_1_11 l_0_1_11)))
 (let ((?x475 (* l_0_1_10 l_0_1_10)))
 (let ((?x467 (* l_0_1_6 l_0_1_6)))
 (let ((?x468 (+ (+ (* l_0_1_4 l_0_1_4) (* l_0_1_5 l_0_1_5)) ?x467)))
 (let ((?x706 (- _a_3_)))
 (= (- (- (- (* ?x706 ?x468) ?x475) ?x478) ?x481) 0.0))))))))
(assert
 (>= l_0_1_1 0.0))
(assert
 (>= l_0_1_3 0.0))
(assert
 (>= l_0_1_6 0.0))
(assert
 (>= l_0_1_7 0.0))
(assert
 (>= l_0_1_9 0.0))
(assert
 (>= l_0_1_12 0.0))
(assert
 (>= l_0_1_13 0.0))
(assert
 (>= l_0_1_15 0.0))
(assert
 (>= l_0_1_18 0.0))
(assert
 (let ((?x761 (* l_0_2_13 l_0_2_13)))
 (let ((?x756 (+ (+ (* (* (- _a_0_) l_0_2_1) l_0_2_1) _a_0_) (* 1.0 _a_1_))))
 (let ((?x765 (- (- (+ (+ ?x756 (* 1.0 _a_2_)) (* 1.0 _a_3_)) ?x761) (* (* 3.0 l_0_2_7) l_0_2_7))))
 (= ?x765 0.0)))))
(assert
 (let ((?x790 (* 4.0 _a_3_)))
 (let ((?x412 (* 2.0 _a_1_)))
 (let ((?x784 (+ (* (* 2.0 l_0_2_2) l_0_2_4) (* (* 2.0 l_0_2_3) l_0_2_5))))
 (let ((?x278 (- _a_0_)))
 (let ((?x791 (+ (+ (- (* ?x278 ?x784) (* (* ?x412 l_0_2_1) l_0_2_2)) ?x412) ?x790)))
 (let ((?x797 (- (- ?x791 (* (* 6.0 l_0_2_10) l_0_2_8)) (* (* 6.0 l_0_2_11) l_0_2_9))))
 (let ((?x803 (- (- ?x797 (* (* 2.0 l_0_2_14) l_0_2_16)) (* (* 2.0 l_0_2_15) l_0_2_17))))
 (= ?x803 0.0)))))))))
(assert
 (let ((?x773 (* l_0_2_7 l_0_2_7)))
 (let ((?x873 (* l_0_2_18 l_0_2_18)))
 (let ((?x871 (* l_0_2_17 l_0_2_17)))
 (let ((?x869 (* l_0_2_16 l_0_2_16)))
 (let ((?x557 (* 2.0 _a_3_)))
 (let ((?x849 (* l_0_2_6 l_0_2_6)))
 (let ((?x850 (+ (+ (* l_0_2_4 l_0_2_4) (* l_0_2_5 l_0_2_5)) ?x849)))
 (let ((?x278 (- _a_0_)))
 (let ((?x854 (+ (- (* ?x278 ?x850) (* (* (* 2.0 _a_1_) l_0_2_1) l_0_2_4)) _a_1_)))
 (let ((?x862 (- (+ (- (+ ?x854 _a_2_) (* (* _a_3_ l_0_2_1) l_0_2_1)) ?x557) (* (* 3.0 l_0_2_10) l_0_2_10))))
 (let ((?x868 (- (- ?x862 (* (* 3.0 l_0_2_11) l_0_2_11)) (* (* 3.0 l_0_2_12) l_0_2_12))))
 (= (+ (- (- (- ?x868 ?x869) ?x871) ?x873) ?x773) 0.0)))))))))))))
(assert
 (let ((?x934 (* l_0_2_9 l_0_2_9)))
 (let ((?x932 (* l_0_2_8 l_0_2_8)))
 (let ((?x931 (+ (* (- _a_2_) (+ (* l_0_2_2 l_0_2_2) (* l_0_2_3 l_0_2_3))) _a_2_)))
 (= (+ (+ ?x931 ?x932) ?x934) 0.0)))))
(assert
 (let ((?x949 (* 2.0 l_0_2_10)))
 (let ((?x950 (* ?x949 l_0_2_7)))
 (let ((?x529 (* 2.0 _a_2_)))
 (let ((?x947 (- (* (- _a_1_) (+ (* l_0_2_2 l_0_2_2) (* l_0_2_3 l_0_2_3))) (* (* ?x529 l_0_2_1) l_0_2_4))))
 (= (+ (+ ?x947 ?x529) ?x950) 0.0))))))
(assert
 (let ((?x773 (* l_0_2_7 l_0_2_7)))
 (let ((?x975 (* l_0_2_15 l_0_2_15)))
 (let ((?x973 (* l_0_2_14 l_0_2_14)))
 (let ((?x529 (* 2.0 _a_2_)))
 (let ((?x971 (- (* (- _a_0_) (+ (* l_0_2_2 l_0_2_2) (* l_0_2_3 l_0_2_3))) (* (* _a_2_ l_0_2_1) l_0_2_1))))
 (let ((?x980 (- (+ (- (- (- ?x971 ?x529) ?x973) ?x975) ?x773) (* (* 3.0 l_0_2_8) l_0_2_8))))
 (= (- ?x980 (* (* 3.0 l_0_2_9) l_0_2_9)) 0.0))))))))
(assert
 (let ((?x529 (* 2.0 _a_2_)))
 (let ((?x1020 (- (* (* (* (- 2.0) _a_0_) l_0_2_1) l_0_2_4) (* (* _a_1_ l_0_2_1) l_0_2_1))))
 (let ((?x1026 (- (- (- ?x1020 ?x529) (* (* 6.0 l_0_2_10) l_0_2_7)) (* (* 2.0 l_0_2_13) l_0_2_16))))
 (= ?x1026 0.0)))))
(assert
 (let ((?x934 (* l_0_2_9 l_0_2_9)))
 (let ((?x932 (* l_0_2_8 l_0_2_8)))
 (let ((?x910 (* l_0_2_12 l_0_2_12)))
 (let ((?x904 (* l_0_2_11 l_0_2_11)))
 (let ((?x898 (* l_0_2_10 l_0_2_10)))
 (let ((?x790 (* 4.0 _a_3_)))
 (let ((?x849 (* l_0_2_6 l_0_2_6)))
 (let ((?x850 (+ (+ (* l_0_2_4 l_0_2_4) (* l_0_2_5 l_0_2_5)) ?x849)))
 (let ((?x620 (- _a_2_)))
 (let ((?x1052 (- (* ?x620 ?x850) (* _a_3_ (+ (* l_0_2_2 l_0_2_2) (* l_0_2_3 l_0_2_3))))))
 (= (+ (+ (+ (+ (+ (+ ?x1052 ?x790) ?x898) ?x904) ?x910) ?x932) ?x934) 0.0))))))))))))
(assert
 (let ((?x1087 (* (* 2.0 l_0_2_11) l_0_2_9)))
 (let ((?x949 (* 2.0 l_0_2_10)))
 (let ((?x1084 (* ?x949 l_0_2_8)))
 (let ((?x790 (* 4.0 _a_3_)))
 (let ((?x784 (+ (* (* 2.0 l_0_2_2) l_0_2_4) (* (* 2.0 l_0_2_3) l_0_2_5))))
 (let ((?x706 (- _a_3_)))
 (= (+ (+ (+ (* ?x706 ?x784) ?x790) ?x1084) ?x1087) 0.0))))))))
(assert
 (let ((?x910 (* l_0_2_12 l_0_2_12)))
 (let ((?x904 (* l_0_2_11 l_0_2_11)))
 (let ((?x898 (* l_0_2_10 l_0_2_10)))
 (let ((?x849 (* l_0_2_6 l_0_2_6)))
 (let ((?x850 (+ (+ (* l_0_2_4 l_0_2_4) (* l_0_2_5 l_0_2_5)) ?x849)))
 (let ((?x706 (- _a_3_)))
 (= (+ (+ (+ (+ (* ?x706 ?x850) _a_3_) ?x898) ?x904) ?x910) 0.0))))))))
(assert
 (let ((?x1117 (- (* (* (* (- 2.0) _a_0_) l_0_2_1) l_0_2_2) (* (* 2.0 l_0_2_13) l_0_2_14))))
 (= (- ?x1117 (* (* 6.0 l_0_2_7) l_0_2_8)) 0.0)))
(assert
 (let ((?x1146 (* (* 2.0 l_0_2_7) l_0_2_8)))
 (let ((?x784 (+ (* (* 2.0 l_0_2_2) l_0_2_4) (* (* 2.0 l_0_2_3) l_0_2_5))))
 (let ((?x527 (- _a_1_)))
 (let ((?x1147 (+ (- (* ?x527 ?x784) (* (* (* 2.0 _a_3_) l_0_2_1) l_0_2_2)) ?x1146)))
 (= ?x1147 0.0))))))
(assert
 (let ((?x949 (* 2.0 l_0_2_10)))
 (let ((?x950 (* ?x949 l_0_2_7)))
 (let ((?x849 (* l_0_2_6 l_0_2_6)))
 (let ((?x850 (+ (+ (* l_0_2_4 l_0_2_4) (* l_0_2_5 l_0_2_5)) ?x849)))
 (let ((?x527 (- _a_1_)))
 (let ((?x1166 (+ (- (* ?x527 ?x850) (* (* (* 2.0 _a_3_) l_0_2_1) l_0_2_4)) ?x950)))
 (= ?x1166 0.0))))))))
(assert
 (let ((?x1146 (* (* 2.0 l_0_2_7) l_0_2_8)))
 (= (+ (* (* (* (- 2.0) _a_2_) l_0_2_1) l_0_2_2) ?x1146) 0.0)))
(assert
 (let ((?x1087 (* (* 2.0 l_0_2_11) l_0_2_9)))
 (let ((?x949 (* 2.0 l_0_2_10)))
 (let ((?x1084 (* ?x949 l_0_2_8)))
 (let ((?x784 (+ (* (* 2.0 l_0_2_2) l_0_2_4) (* (* 2.0 l_0_2_3) l_0_2_5))))
 (let ((?x620 (- _a_2_)))
 (= (+ (+ (* ?x620 ?x784) ?x1084) ?x1087) 0.0)))))))
(assert
 (>= l_0_2_1 0.0))
(assert
 (>= l_0_2_3 0.0))
(assert
 (>= l_0_2_6 0.0))
(assert
 (>= l_0_2_7 0.0))
(assert
 (>= l_0_2_9 0.0))
(assert
 (>= l_0_2_12 0.0))
(assert
 (>= l_0_2_13 0.0))
(assert
 (>= l_0_2_15 0.0))
(assert
 (>= l_0_2_18 0.0))
(check-sat)
(get-model)